[[81, 71, 80, 70, 69, 78, 79, 88, 89, 90, 99, 98, 97, 96, 87, 86, 95], [94, 93, 92, 91, 83, 82, 73, 84, 75, 76, 85, 77, 68, 67, 66, 74, 64, 65, 56, 58, 59, 49, 57], [55, 46, 47, 38, 48, 39, 40, 50, 41, 32, 29, 37, 28, 30, 31, 21, 22, 19, 20], [13, 11, 10, 2, 12, 3, 4, 14, 5, 6, 7, 8, 9, 18, 17, 16, 15, 23, 24, 25], [26, 27, 36, 35, 34, 33, 42, 43, 44, 45, 54, 53, 52, 51, 60, 61, 62, 63, 72]]